(set-info :origin "SVCOMP13 benchmarks generated by Arie Gurfinkel")
(set-info :status sat)
(set-logic HORN)
(declare-fun cp-rel-entry () Bool)
(declare-fun cp-rel-bb2.i.i16.i.i () Bool)
(declare-fun cp-rel-bb1.i.i (Real Real Real) Bool)
(assert |cp-rel-entry|)
(assert (forall ((?A Real) (?B Real) (?C Real) (?D Bool) )(let (($x212249 (and |cp-rel-entry| (<= ?C 1.0) (>= ?B 0.0) (<= ?B 0.0) (>= ?A 0.0) (<= ?A 0.0) (= ?D true) (>= ?C 1.0))))
(=> $x212249 (|cp-rel-bb1.i.i| ?A ?B ?C))))
)
(assert (forall ((?A Real) (?B Real) (?C Real) (?D Real) (?E Real) (?F Real) (?G Bool) (?H Bool) (?I Bool) (?J Bool) (?K Bool) (?L Bool) (?M Real) (?N Real) (?O Bool) (?P Bool) (?Q Bool) (?R Bool) (?S Bool) (?T Bool) (?U Real) (?V Real) (?W Bool) (?X Bool) (?Y Bool) (?Z Bool) (?A1 Bool) (?B1 Bool) (?C1 Bool) (?D1 Bool) (?E1 Bool) (?F1 Bool) (?G1 Bool) (?H1 Real) (?I1 Real) (?J1 Bool) (?K1 Bool) (?L1 Real) (?M1 Bool) (?N1 Real) (?O1 Bool) (?P1 Real) (?Q1 Real) (?R1 Bool) (?S1 Bool) (?T1 Real) (?U1 Bool) (?V1 Bool) (?W1 Bool) (?X1 Bool) )(let (($x59250 (|cp-rel-bb1.i.i| ?D ?E ?F)))
(let (($x266458 (= ?M1 (and ?X1 ?W1))))
(let (($x638816 (or (not ?G) (and ?H ?I (not ?J)))))
(let (($x178339 (or (not ?G) ?I)))
(let (($x626609 (not ?K)))
(let (($x190833 (or $x626609 (and ?G ?L (<= ?M ?N) (>= ?M ?N)) (and ?H ?O ?J (<= ?M ?C) (>= ?M ?C)))))
(let (($x549177 (or $x626609 (and ?L (not ?O)) (and ?O (not ?L)))))
(let (($x345190 (or (not ?P) (and ?K ?Q (not ?R)))))
(let (($x358125 (or (not ?P) ?Q)))
(let (($x394794 (not ?S)))
(let (($x923190 (or $x394794 (and ?P ?T (<= ?U ?V) (>= ?U ?V)) (and ?K ?W ?R (<= ?U ?B) (>= ?U ?B)))))
(let (($x298873 (or $x394794 (and ?T (not ?W)) (and ?W (not ?T)))))
(let (($x373792 (or (not ?X) (and ?S ?Y ?Z))))
(let (($x348506 (or (not ?X) ?Y)))
(let (($x248726 (or (not ?A1) (and ?S ?B1 (not ?Z)))))
(let (($x100315 (or (not ?A1) ?B1)))
(let (($x623034 (or (not ?C1) (and ?X ?D1 (not ?E1)))))
(let (($x388976 (or (not ?C1) ?D1)))
(let (($x284963 (and ?A1 ?K1 (<= ?H1 ?L1) (>= ?H1 ?L1) (<= ?I1 ?A) (>= ?I1 ?A))))
(let (($x238319 (>= ?H1 ?M)))
(let (($x842821 (<= ?H1 ?M)))
(let (($x894681 (not ?F1)))
(let (($x277325 (or $x894681 (and ?C1 ?G1 $x842821 $x238319 (<= ?I1 ?A) (>= ?I1 ?A)) (and ?X ?J1 ?E1 $x842821 $x238319 (<= ?I1 1.0) (>= ?I1 1.0)) $x284963)))
(let (($x446848 (or $x894681 (and ?G1 (not ?J1) (not ?K1)) (and ?J1 (not ?G1) (not ?K1)) (and ?K1 (not ?G1) (not ?J1)))))
(let (($x159692 (= ?F1 true)))
(let (($x278039 (= ?J (= ?N1 0.0))))
(let (($x240315 (= ?P1 (ite ?O1 1.0 0.0))))
(let (($x83568 (= ?R (= ?Q1 0.0))))
(let (($x356883 (= ?V (ite ?R1 1.0 0.0))))
(let (($x410676 (= ?E1 (not (<= ?M 1.0)))))
(let (($x355523 (= ?S1 (not (<= ?M 0.0)))))
(let (($x260681 (= ?T1 (+ (~ 1.0) ?M))))
(let (($x859629 (= ?L1 (ite ?S1 ?T1 ?M))))
(let (($x311009 (= ?U1 (= ?U 0.0))))
(let (($x625950 (= ?V1 (= ?H1 2.0))))
(let (($x864970 (= ?W1 (= ?I1 0.0))))
(let (($x536727 (= ?X1 (and ?V1 ?U1))))
(let (($x166420 (and (|cp-rel-bb1.i.i| ?A ?B ?C) $x536727 $x864970 $x625950 $x311009 $x859629 $x260681 $x355523 $x410676 (= ?Z (= ?A 0.0)) $x356883 (= ?R1 (= ?B 0.0)) $x83568 (= ?N (+ ?P1 ?C)) $x240315 (= ?O1 (not (<= 2.0 ?C))) $x278039 (>= ?F ?H1) (<= ?F ?H1) (>= ?E ?U) (<= ?E ?U) (>= ?D ?I1) (<= ?D ?I1) (not (= ?M1 true)) $x159692 $x446848 $x277325 $x388976 $x623034 $x100315 $x248726 $x348506 $x373792 $x298873 $x923190 $x358125 $x345190 $x549177 $x190833 $x178339 $x638816 $x266458)))
(=> $x166420 $x59250))))))))))))))))))))))))))))))))))))))))
)
(assert (forall ((?A Real) (?B Real) (?C Real) (?D Bool) (?E Bool) (?F Bool) (?G Bool) (?H Bool) (?I Bool) (?J Real) (?K Real) (?L Bool) (?M Bool) (?N Bool) (?O Bool) (?P Bool) (?Q Bool) (?R Real) (?S Real) (?T Bool) (?U Bool) (?V Bool) (?W Bool) (?X Bool) (?Y Bool) (?Z Bool) (?A1 Bool) (?B1 Bool) (?C1 Bool) (?D1 Bool) (?E1 Real) (?F1 Real) (?G1 Bool) (?H1 Bool) (?I1 Real) (?J1 Bool) (?K1 Real) (?L1 Bool) (?M1 Real) (?N1 Real) (?O1 Bool) (?P1 Bool) (?Q1 Real) (?R1 Bool) (?S1 Bool) (?T1 Bool) (?U1 Bool) )(let (($x266458 (= ?J1 (and ?U1 ?T1))))
(let (($x638816 (or (not ?D) (and ?E ?F (not ?G)))))
(let (($x178339 (or (not ?D) ?F)))
(let (($x626609 (not ?H)))
(let (($x228617 (or $x626609 (and ?D ?I (<= ?J ?K) (>= ?J ?K)) (and ?E ?L ?G (<= ?J ?C) (>= ?J ?C)))))
(let (($x549177 (or $x626609 (and ?I (not ?L)) (and ?L (not ?I)))))
(let (($x345190 (or (not ?M) (and ?H ?N (not ?O)))))
(let (($x358125 (or (not ?M) ?N)))
(let (($x394794 (not ?P)))
(let (($x186253 (or $x394794 (and ?M ?Q (<= ?R ?S) (>= ?R ?S)) (and ?H ?T ?O (<= ?R ?B) (>= ?R ?B)))))
(let (($x298873 (or $x394794 (and ?Q (not ?T)) (and ?T (not ?Q)))))
(let (($x373792 (or (not ?U) (and ?P ?V ?W))))
(let (($x348506 (or (not ?U) ?V)))
(let (($x248726 (or (not ?X) (and ?P ?Y (not ?W)))))
(let (($x100315 (or (not ?X) ?Y)))
(let (($x623034 (or (not ?Z) (and ?U ?A1 (not ?B1)))))
(let (($x388976 (or (not ?Z) ?A1)))
(let (($x102567 (and ?X ?H1 (<= ?E1 ?I1) (>= ?E1 ?I1) (<= ?F1 ?A) (>= ?F1 ?A))))
(let (($x238319 (>= ?E1 ?J)))
(let (($x842821 (<= ?E1 ?J)))
(let (($x894681 (not ?C1)))
(let (($x608824 (or $x894681 (and ?Z ?D1 $x842821 $x238319 (<= ?F1 ?A) (>= ?F1 ?A)) (and ?U ?G1 ?B1 $x842821 $x238319 (<= ?F1 1.0) (>= ?F1 1.0)) $x102567)))
(let (($x446848 (or $x894681 (and ?D1 (not ?G1) (not ?H1)) (and ?G1 (not ?D1) (not ?H1)) (and ?H1 (not ?D1) (not ?G1)))))
(let (($x159692 (= ?C1 true)))
(let (($x341896 (= ?J1 true)))
(let (($x278039 (= ?G (= ?K1 0.0))))
(let (($x240315 (= ?M1 (ite ?L1 1.0 0.0))))
(let (($x83568 (= ?O (= ?N1 0.0))))
(let (($x356883 (= ?S (ite ?O1 1.0 0.0))))
(let (($x410676 (= ?B1 (not (<= ?J 1.0)))))
(let (($x355523 (= ?P1 (not (<= ?J 0.0)))))
(let (($x260681 (= ?Q1 (+ (~ 1.0) ?J))))
(let (($x859629 (= ?I1 (ite ?P1 ?Q1 ?J))))
(let (($x311009 (= ?R1 (= ?R 0.0))))
(let (($x625950 (= ?S1 (= ?E1 2.0))))
(let (($x864970 (= ?T1 (= ?F1 0.0))))
(let (($x536727 (= ?U1 (and ?S1 ?R1))))
(let (($x59250 (|cp-rel-bb1.i.i| ?A ?B ?C)))
(let (($x392107 (and $x59250 $x536727 $x864970 $x625950 $x311009 $x859629 $x260681 $x355523 $x410676 (= ?W (= ?A 0.0)) $x356883 (= ?O1 (= ?B 0.0)) $x83568 (= ?K (+ ?M1 ?C)) $x240315 (= ?L1 (not (<= 2.0 ?C))) $x278039 $x341896 $x159692 $x446848 $x608824 $x388976 $x623034 $x100315 $x248726 $x348506 $x373792 $x298873 $x186253 $x358125 $x345190 $x549177 $x228617 $x178339 $x638816 $x266458)))
(=> $x392107 |cp-rel-bb2.i.i16.i.i|)))))))))))))))))))))))))))))))))))))))))
)
(assert (not cp-rel-bb2.i.i16.i.i))
(check-sat)
